28
17
0 18 21 22 23 24 25 26
1 18 20 21 22 23 25
2 18 21 23 25
3 18 21 23 24 25 26
4 17 18 22 24 25
5 17 18 21 22 23 24
6 17 23
7 18 27
8 18 20 22 23 24 25 26
9 20 21 22 23 24 26
10 19 23
11 20
12 20 22 26
13 18
14 25 27
15 26
16 18 25
